p cnf 15 11
1 -6 -14 1 -2 8 14 7 -10 5 2 1 14 0
9 13 -1 -1 -4 14 -15 14 -12 -2 6 -6 0
-2 -6 -11 -8 -13 -2 9 10 0
13 6 5 1 -3 4 -15 1 -9 3 6 -12 -13 -14 -8 0
-1 -9 -14 13 11 -10 -11 0
9 5 -9 12 11 -11 0
3 4 15 -15 -2 -11 -7 0
13 7 2 -8 2 -2 14 0
7 11 2 -14 -5 11 4 -10 -3 -2 14 -2 -10 -8 0
-11 11 -11 -2 1 7 -8 -2 -6 1 0
-4 5 11 8 0
